lab5/part1/countones/countones_synth/model/design_smt2.smt2
; SMT-LIBv2 description generated by Yosys 0.25+1 (git sha1 d3216593d, clang 10.0.0-4ubuntu1 -fPIC -Os)
; yosys-smt2-module yosys_countones
(declare-sort |yosys_countones_s| 0)
(declare-fun |yosys_countones_is| (|yosys_countones_s|) Bool)
(declare-fun |yosys_countones#0| (|yosys_countones_s|) (_ BitVec 1)) ; \binary_i [1]
(declare-fun |yosys_countones#1| (|yosys_countones_s|) (_ BitVec 1)) ; \binary_i [0]
(define-fun |yosys_countones#2| ((state |yosys_countones_s|)) (_ BitVec 1) (bvxor (|yosys_countones#0| state) (|yosys_countones#1| state))) ; $not$countones.sv:128$43_Y
(define-fun |yosys_countones#3| ((state |yosys_countones_s|)) (_ BitVec 1) (bvnot (|yosys_countones#2| state))) ; \_02_
(declare-fun |yosys_countones#4| (|yosys_countones_s|) (_ BitVec 1)) ; \binary_i [3]
(define-fun |yosys_countones#5| ((state |yosys_countones_s|)) (_ BitVec 1) (bvnot (|yosys_countones#4| state))) ; \_01_
(define-fun |yosys_countones#6| ((state |yosys_countones_s|)) (_ BitVec 1) (bvxor (|yosys_countones#3| state) (|yosys_countones#5| state))) ; \_05_
(declare-fun |yosys_countones#7| (|yosys_countones_s|) (_ BitVec 1)) ; \binary_i [6]
(define-fun |yosys_countones#8| ((state |yosys_countones_s|)) (_ BitVec 1) (bvxor (|yosys_countones#6| state) (|yosys_countones#7| state))) ; $not$countones.sv:134$51_Y
(define-fun |yosys_countones#9| ((state |yosys_countones_s|)) (_ BitVec 1) (bvnot (|yosys_countones#8| state))) ; \_08_
(declare-fun |yosys_countones#10| (|yosys_countones_s|) (_ BitVec 1)) ; \binary_i [5]
(define-fun |yosys_countones#11| ((state |yosys_countones_s|)) (_ BitVec 1) (bvnot (|yosys_countones#10| state))) ; \_07_
(define-fun |yosys_countones#12| ((state |yosys_countones_s|)) (_ BitVec 1) (bvxor (|yosys_countones#9| state) (|yosys_countones#11| state))) ; \_12_
(declare-fun |yosys_countones#13| (|yosys_countones_s|) (_ BitVec 1)) ; \binary_i [4]
(define-fun |yosys_countones#14| ((state |yosys_countones_s|)) (_ BitVec 1) (bvxor (|yosys_countones#12| state) (|yosys_countones#13| state))) ; $not$countones.sv:141$61_Y
(define-fun |yosys_countones#15| ((state |yosys_countones_s|)) (_ BitVec 1) (bvnot (|yosys_countones#14| state))) ; \_15_
(declare-fun |yosys_countones#16| (|yosys_countones_s|) (_ BitVec 1)) ; \binary_i [7]
(define-fun |yosys_countones#17| ((state |yosys_countones_s|)) (_ BitVec 1) (bvnot (|yosys_countones#16| state))) ; \_14_
(define-fun |yosys_countones#18| ((state |yosys_countones_s|)) (_ BitVec 1) (bvxor (|yosys_countones#15| state) (|yosys_countones#17| state))) ; \_19_
(declare-fun |yosys_countones#19| (|yosys_countones_s|) (_ BitVec 1)) ; \binary_i [2]
(define-fun |yosys_countones#20| ((state |yosys_countones_s|)) (_ BitVec 1) (bvxor (|yosys_countones#18| state) (|yosys_countones#19| state))) ; \count_o [0]
(define-fun |yosys_countones#21| ((state |yosys_countones_s|)) (_ BitVec 1) (bvor (|yosys_countones#18| state) (|yosys_countones#19| state))) ; \_20_
(define-fun |yosys_countones#22| ((state |yosys_countones_s|)) (_ BitVec 1) (bvor (|yosys_countones#12| state) (|yosys_countones#13| state))) ; \_13_
(define-fun |yosys_countones#23| ((state |yosys_countones_s|)) (_ BitVec 1) (bvand (|yosys_countones#17| state) (|yosys_countones#14| state))) ; \_16_
(define-fun |yosys_countones#24| ((state |yosys_countones_s|)) (_ BitVec 1) (bvnot (|yosys_countones#23| state))) ; $not$countones.sv:142$63_Y
(define-fun |yosys_countones#25| ((state |yosys_countones_s|)) (_ BitVec 1) (bvand (|yosys_countones#22| state) (|yosys_countones#24| state))) ; \_17_
(define-fun |yosys_countones#26| ((state |yosys_countones_s|)) (_ BitVec 1) (bvor (|yosys_countones#6| state) (|yosys_countones#7| state))) ; \_06_
(define-fun |yosys_countones#27| ((state |yosys_countones_s|)) (_ BitVec 1) (bvand (|yosys_countones#11| state) (|yosys_countones#8| state))) ; \_09_
(define-fun |yosys_countones#28| ((state |yosys_countones_s|)) (_ BitVec 1) (bvnot (|yosys_countones#27| state))) ; $not$countones.sv:135$53_Y
(define-fun |yosys_countones#29| ((state |yosys_countones_s|)) (_ BitVec 1) (bvand (|yosys_countones#26| state) (|yosys_countones#28| state))) ; \_10_
(define-fun |yosys_countones#30| ((state |yosys_countones_s|)) (_ BitVec 1) (bvand (|yosys_countones#5| state) (|yosys_countones#2| state))) ; \_03_
(define-fun |yosys_countones#31| ((state |yosys_countones_s|)) (_ BitVec 1) (bvor (|yosys_countones#0| state) (|yosys_countones#1| state))) ; $or$countones.sv:125$38_Y
(define-fun |yosys_countones#32| ((state |yosys_countones_s|)) (_ BitVec 1) (bvnot (|yosys_countones#31| state))) ; \_00_
(define-fun |yosys_countones#33| ((state |yosys_countones_s|)) (_ BitVec 1) (bvor (|yosys_countones#30| state) (|yosys_countones#32| state))) ; \_04_
(define-fun |yosys_countones#34| ((state |yosys_countones_s|)) (_ BitVec 1) (bvxor (|yosys_countones#29| state) (|yosys_countones#33| state))) ; \_11_
(define-fun |yosys_countones#35| ((state |yosys_countones_s|)) (_ BitVec 1) (bvxor (|yosys_countones#25| state) (|yosys_countones#34| state))) ; \_18_
(define-fun |yosys_countones#36| ((state |yosys_countones_s|)) (_ BitVec 1) (bvxor (|yosys_countones#21| state) (|yosys_countones#35| state))) ; $xor$countones.sv:146$68_Y
(define-fun |yosys_countones#37| ((state |yosys_countones_s|)) (_ BitVec 1) (bvnot (|yosys_countones#36| state))) ; \count_o [1]
(define-fun |yosys_countones#38| ((state |yosys_countones_s|)) (_ BitVec 1) (bvor (|yosys_countones#25| state) (|yosys_countones#34| state))) ; \_22_
(define-fun |yosys_countones#39| ((state |yosys_countones_s|)) (_ BitVec 1) (bvnot (|yosys_countones#21| state))) ; $not$countones.sv:149$73_Y
(define-fun |yosys_countones#40| ((state |yosys_countones_s|)) (_ BitVec 1) (bvand (|yosys_countones#35| state) (|yosys_countones#39| state))) ; \_23_
(define-fun |yosys_countones#41| ((state |yosys_countones_s|)) (_ BitVec 1) (bvnot (|yosys_countones#40| state))) ; $not$countones.sv:150$75_Y
(define-fun |yosys_countones#42| ((state |yosys_countones_s|)) (_ BitVec 1) (bvand (|yosys_countones#38| state) (|yosys_countones#41| state))) ; \_24_
(define-fun |yosys_countones#43| ((state |yosys_countones_s|)) (_ BitVec 1) (bvnot (|yosys_countones#29| state))) ; $not$countones.sv:147$70_Y
(define-fun |yosys_countones#44| ((state |yosys_countones_s|)) (_ BitVec 1) (bvand (|yosys_countones#33| state) (|yosys_countones#43| state))) ; \_21_
(define-fun |yosys_countones#45| ((state |yosys_countones_s|)) (_ BitVec 1) (bvxor (|yosys_countones#42| state) (|yosys_countones#44| state))) ; $xor$countones.sv:151$77_Y
(define-fun |yosys_countones#46| ((state |yosys_countones_s|)) (_ BitVec 1) (bvnot (|yosys_countones#45| state))) ; \count_o [2]
(define-fun |yosys_countones#47| ((state |yosys_countones_s|)) (_ BitVec 1) (bvnot (|yosys_countones#42| state))) ; $not$countones.sv:153$80_Y
(define-fun |yosys_countones#48| ((state |yosys_countones_s|)) (_ BitVec 1) (bvand (|yosys_countones#44| state) (|yosys_countones#47| state))) ; \count_o [3]
; yosys-smt2-output count_o 4
; yosys-smt2-wire count_o 4
(define-fun |yosys_countones_n count_o| ((state |yosys_countones_s|)) (_ BitVec 4) (concat (|yosys_countones#48| state) (concat (|yosys_countones#46| state) (concat (|yosys_countones#37| state) (|yosys_countones#20| state)))))
; yosys-smt2-wire count_l 4
(define-fun |yosys_countones_n count_l| ((state |yosys_countones_s|)) (_ BitVec 4) (concat (|yosys_countones#48| state) (concat (|yosys_countones#46| state) (concat (|yosys_countones#37| state) (|yosys_countones#20| state)))))
; yosys-smt2-input binary_i 8
; yosys-smt2-wire binary_i 8
; yosys-smt2-witness {"offset": 0, "path": ["\\binary_i"], "smtname": "binary_i", "smtoffset": 0, "type": "input", "width": 8}
(define-fun |yosys_countones_n binary_i| ((state |yosys_countones_s|)) (_ BitVec 8) (concat (|yosys_countones#16| state) (concat (|yosys_countones#7| state) (concat (|yosys_countones#10| state) (concat (|yosys_countones#13| state) (concat (|yosys_countones#4| state) (concat (|yosys_countones#19| state) (concat (|yosys_countones#0| state) (|yosys_countones#1| state)))))))))
; yosys-smt2-wire _24_ 1
(define-fun |yosys_countones_n _24_| ((state |yosys_countones_s|)) Bool (= ((_ extract 0 0) (|yosys_countones#42| state)) #b1))
; yosys-smt2-wire _23_ 1
(define-fun |yosys_countones_n _23_| ((state |yosys_countones_s|)) Bool (= ((_ extract 0 0) (|yosys_countones#40| state)) #b1))
; yosys-smt2-wire _22_ 1
(define-fun |yosys_countones_n _22_| ((state |yosys_countones_s|)) Bool (= ((_ extract 0 0) (|yosys_countones#38| state)) #b1))
; yosys-smt2-wire _21_ 1
(define-fun |yosys_countones_n _21_| ((state |yosys_countones_s|)) Bool (= ((_ extract 0 0) (|yosys_countones#44| state)) #b1))
; yosys-smt2-wire _20_ 1
(define-fun |yosys_countones_n _20_| ((state |yosys_countones_s|)) Bool (= ((_ extract 0 0) (|yosys_countones#21| state)) #b1))
; yosys-smt2-wire _19_ 1
(define-fun |yosys_countones_n _19_| ((state |yosys_countones_s|)) Bool (= ((_ extract 0 0) (|yosys_countones#18| state)) #b1))
; yosys-smt2-wire _18_ 1
(define-fun |yosys_countones_n _18_| ((state |yosys_countones_s|)) Bool (= ((_ extract 0 0) (|yosys_countones#35| state)) #b1))
; yosys-smt2-wire _17_ 1
(define-fun |yosys_countones_n _17_| ((state |yosys_countones_s|)) Bool (= ((_ extract 0 0) (|yosys_countones#25| state)) #b1))
; yosys-smt2-wire _16_ 1
(define-fun |yosys_countones_n _16_| ((state |yosys_countones_s|)) Bool (= ((_ extract 0 0) (|yosys_countones#23| state)) #b1))
; yosys-smt2-wire _15_ 1
(define-fun |yosys_countones_n _15_| ((state |yosys_countones_s|)) Bool (= ((_ extract 0 0) (|yosys_countones#15| state)) #b1))
; yosys-smt2-wire _14_ 1
(define-fun |yosys_countones_n _14_| ((state |yosys_countones_s|)) Bool (= ((_ extract 0 0) (|yosys_countones#17| state)) #b1))
; yosys-smt2-wire _13_ 1
(define-fun |yosys_countones_n _13_| ((state |yosys_countones_s|)) Bool (= ((_ extract 0 0) (|yosys_countones#22| state)) #b1))
; yosys-smt2-wire _12_ 1
(define-fun |yosys_countones_n _12_| ((state |yosys_countones_s|)) Bool (= ((_ extract 0 0) (|yosys_countones#12| state)) #b1))
; yosys-smt2-wire _11_ 1
(define-fun |yosys_countones_n _11_| ((state |yosys_countones_s|)) Bool (= ((_ extract 0 0) (|yosys_countones#34| state)) #b1))
; yosys-smt2-wire _10_ 1
(define-fun |yosys_countones_n _10_| ((state |yosys_countones_s|)) Bool (= ((_ extract 0 0) (|yosys_countones#29| state)) #b1))
; yosys-smt2-wire _09_ 1
(define-fun |yosys_countones_n _09_| ((state |yosys_countones_s|)) Bool (= ((_ extract 0 0) (|yosys_countones#27| state)) #b1))
; yosys-smt2-wire _08_ 1
(define-fun |yosys_countones_n _08_| ((state |yosys_countones_s|)) Bool (= ((_ extract 0 0) (|yosys_countones#9| state)) #b1))
; yosys-smt2-wire _07_ 1
(define-fun |yosys_countones_n _07_| ((state |yosys_countones_s|)) Bool (= ((_ extract 0 0) (|yosys_countones#11| state)) #b1))
; yosys-smt2-wire _06_ 1
(define-fun |yosys_countones_n _06_| ((state |yosys_countones_s|)) Bool (= ((_ extract 0 0) (|yosys_countones#26| state)) #b1))
; yosys-smt2-wire _05_ 1
(define-fun |yosys_countones_n _05_| ((state |yosys_countones_s|)) Bool (= ((_ extract 0 0) (|yosys_countones#6| state)) #b1))
; yosys-smt2-wire _04_ 1
(define-fun |yosys_countones_n _04_| ((state |yosys_countones_s|)) Bool (= ((_ extract 0 0) (|yosys_countones#33| state)) #b1))
; yosys-smt2-wire _03_ 1
(define-fun |yosys_countones_n _03_| ((state |yosys_countones_s|)) Bool (= ((_ extract 0 0) (|yosys_countones#30| state)) #b1))
; yosys-smt2-wire _02_ 1
(define-fun |yosys_countones_n _02_| ((state |yosys_countones_s|)) Bool (= ((_ extract 0 0) (|yosys_countones#3| state)) #b1))
; yosys-smt2-wire _01_ 1
(define-fun |yosys_countones_n _01_| ((state |yosys_countones_s|)) Bool (= ((_ extract 0 0) (|yosys_countones#5| state)) #b1))
; yosys-smt2-wire _00_ 1
(define-fun |yosys_countones_n _00_| ((state |yosys_countones_s|)) Bool (= ((_ extract 0 0) (|yosys_countones#32| state)) #b1))
(define-fun |yosys_countones_a| ((state |yosys_countones_s|)) Bool true)
(define-fun |yosys_countones_u| ((state |yosys_countones_s|)) Bool true)
(define-fun |yosys_countones_i| ((state |yosys_countones_s|)) Bool true)
(define-fun |yosys_countones_h| ((state |yosys_countones_s|)) Bool true)
(define-fun |yosys_countones_t| ((state |yosys_countones_s|) (next_state |yosys_countones_s|)) Bool true) ; end of module yosys_countones
; yosys-smt2-module countones_synth
(declare-sort |countones_synth_s| 0)
(declare-fun |countones_synth_is| (|countones_synth_s|) Bool)
; yosys-smt2-cell yosys_countones countones_synth_i
; yosys-smt2-witness {"path": ["\\countones_synth_i"], "smtname": "countones_synth_i", "type": "cell"}
(declare-fun |countones_synth#0| (|countones_synth_s|) (_ BitVec 4)) ; \count_o
(declare-fun |countones_synth_h countones_synth_i| (|countones_synth_s|) |yosys_countones_s|)
; yosys-smt2-output count_o 4
; yosys-smt2-wire count_o 4
(define-fun |countones_synth_n count_o| ((state |countones_synth_s|)) (_ BitVec 4) (|countones_synth#0| state))
(declare-fun |countones_synth#1| (|countones_synth_s|) (_ BitVec 8)) ; \binary_i
; yosys-smt2-input binary_i 8
; yosys-smt2-wire binary_i 8
; yosys-smt2-witness {"offset": 0, "path": ["\\binary_i"], "smtname": "binary_i", "smtoffset": 0, "type": "input", "width": 8}
(define-fun |countones_synth_n binary_i| ((state |countones_synth_s|)) (_ BitVec 8) (|countones_synth#1| state))
(define-fun |countones_synth#2| ((state |countones_synth_s|)) Bool (= ((_ extract 7 7) (|countones_synth#1| state)) #b1)) ; $add$countones.sv:0$6_Y [0]
(define-fun |countones_synth#3| ((state |countones_synth_s|)) Bool (= ((_ extract 6 6) (|countones_synth#1| state)) #b1)) ; $eqx$countones.sv:0$9_Y [0]
(define-fun |countones_synth#4| ((state |countones_synth_s|)) (_ BitVec 3) (bvadd (concat #b00 (ite (|countones_synth#2| state) #b1 #b0)) (concat #b00 (ite (|countones_synth#3| state) #b1 #b0)))) ; $add$countones.sv:0$10_Y
(define-fun |countones_synth#5| ((state |countones_synth_s|)) Bool (= ((_ extract 5 5) (|countones_synth#1| state)) #b1)) ; $eqx$countones.sv:0$13_Y [0]
(define-fun |countones_synth#6| ((state |countones_synth_s|)) (_ BitVec 4) (bvadd (concat #b0 (|countones_synth#4| state)) (concat #b000 (ite (|countones_synth#5| state) #b1 #b0)))) ; $add$countones.sv:0$14_Y
(define-fun |countones_synth#7| ((state |countones_synth_s|)) Bool (= ((_ extract 4 4) (|countones_synth#1| state)) #b1)) ; $eqx$countones.sv:0$17_Y [0]
(define-fun |countones_synth#8| ((state |countones_synth_s|)) (_ BitVec 5) (bvadd (concat #b0 (|countones_synth#6| state)) (concat #b0000 (ite (|countones_synth#7| state) #b1 #b0)))) ; $add$countones.sv:0$18_Y
(define-fun |countones_synth#9| ((state |countones_synth_s|)) Bool (= ((_ extract 3 3) (|countones_synth#1| state)) #b1)) ; $eqx$countones.sv:0$21_Y [0]
(define-fun |countones_synth#10| ((state |countones_synth_s|)) (_ BitVec 6) (bvadd (concat #b0 (|countones_synth#8| state)) (concat #b00000 (ite (|countones_synth#9| state) #b1 #b0)))) ; $add$countones.sv:0$22_Y
(define-fun |countones_synth#11| ((state |countones_synth_s|)) Bool (= ((_ extract 2 2) (|countones_synth#1| state)) #b1)) ; $eqx$countones.sv:0$25_Y [0]
(define-fun |countones_synth#12| ((state |countones_synth_s|)) (_ BitVec 7) (bvadd (concat #b0 (|countones_synth#10| state)) (concat #b000000 (ite (|countones_synth#11| state) #b1 #b0)))) ; $add$countones.sv:0$26_Y
(define-fun |countones_synth#13| ((state |countones_synth_s|)) Bool (= ((_ extract 1 1) (|countones_synth#1| state)) #b1)) ; $eqx$countones.sv:0$29_Y [0]
(define-fun |countones_synth#14| ((state |countones_synth_s|)) (_ BitVec 8) (bvadd (concat #b0 (|countones_synth#12| state)) (concat #b0000000 (ite (|countones_synth#13| state) #b1 #b0)))) ; $add$countones.sv:0$30_Y
(define-fun |countones_synth#15| ((state |countones_synth_s|)) Bool (= ((_ extract 0 0) (|countones_synth#1| state)) #b1)) ; $eqx$countones.sv:0$33_Y [0]
(define-fun |countones_synth#16| ((state |countones_synth_s|)) (_ BitVec 9) (bvadd (concat #b0 (|countones_synth#14| state)) (concat #b00000000 (ite (|countones_synth#15| state) #b1 #b0)))) ; $add$countones.sv:73$34_Y
(define-fun |countones_synth#17| ((state |countones_synth_s|)) (_ BitVec 10) (bvsub #b0000001000 (concat #b0 (|countones_synth#16| state)))) ; { $sub$countones.sv:73$35_Y [31] $sub$countones.sv:73$35_Y [8:0] }
(define-fun |countones_synth#18| ((state |countones_synth_s|)) Bool (= (concat #b0000000000000000000000000000 (|countones_synth#0| state)) (concat ((_ extract 9 9) (|countones_synth#17| state)) (concat ((_ extract 9 9) (|countones_synth#17| state)) (concat ((_ extract 9 9) (|countones_synth#17| state)) (concat ((_ extract 9 9) (|countones_synth#17| state)) (concat ((_ extract 9 9) (|countones_synth#17| state)) (concat ((_ extract 9 9) (|countones_synth#17| state)) (concat ((_ extract 9 9) (|countones_synth#17| state)) (concat ((_ extract 9 9) (|countones_synth#17| state)) (concat ((_ extract 9 9) (|countones_synth#17| state)) (concat ((_ extract 9 9) (|countones_synth#17| state)) (concat ((_ extract 9 9) (|countones_synth#17| state)) (concat ((_ extract 9 9) (|countones_synth#17| state)) (concat ((_ extract 9 9) (|countones_synth#17| state)) (concat ((_ extract 9 9) (|countones_synth#17| state)) (concat ((_ extract 9 9) (|countones_synth#17| state)) (concat ((_ extract 9 9) (|countones_synth#17| state)) (concat ((_ extract 9 9) (|countones_synth#17| state)) (concat ((_ extract 9 9) (|countones_synth#17| state)) (concat ((_ extract 9 9) (|countones_synth#17| state)) (concat ((_ extract 9 9) (|countones_synth#17| state)) (concat ((_ extract 9 9) (|countones_synth#17| state)) (concat ((_ extract 9 9) (|countones_synth#17| state)) (|countones_synth#17| state))))))))))))))))))))))))) ; $eq$countones.sv:73$36_Y
; yosys-smt2-assert 0 $assert$countones.sv:50$37 countones.sv:50.41-73.65
(define-fun |countones_synth_a 0| ((state |countones_synth_s|)) Bool (or (|countones_synth#18| state) (not true))) ; $assert$countones.sv:50$37
(define-fun |countones_synth_a| ((state |countones_synth_s|)) Bool (and
  (|countones_synth_a 0| state)
  (|yosys_countones_a| (|countones_synth_h countones_synth_i| state))
))
(define-fun |countones_synth_u| ((state |countones_synth_s|)) Bool 
  (|yosys_countones_u| (|countones_synth_h countones_synth_i| state))
)
(define-fun |countones_synth_i| ((state |countones_synth_s|)) Bool 
  (|yosys_countones_i| (|countones_synth_h countones_synth_i| state))
)
(define-fun |countones_synth_h| ((state |countones_synth_s|)) Bool (and
  (= (|countones_synth_is| state) (|yosys_countones_is| (|countones_synth_h countones_synth_i| state)))
  (= (|countones_synth#0| state) (|yosys_countones_n count_o| (|countones_synth_h countones_synth_i| state))) ; yosys_countones.count_o
  (= (|countones_synth#1| state) (|yosys_countones_n binary_i| (|countones_synth_h countones_synth_i| state))) ; yosys_countones.binary_i
  (|yosys_countones_h| (|countones_synth_h countones_synth_i| state))
))
(define-fun |countones_synth_t| ((state |countones_synth_s|) (next_state |countones_synth_s|)) Bool 
  (|yosys_countones_t| (|countones_synth_h countones_synth_i| state) (|countones_synth_h countones_synth_i| next_state))
) ; end of module countones_synth
; yosys-smt2-topmod countones_synth
; end of yosys output
